benchmarks/INST_36x36/15/inst36x36_15_32.txt
6
1
-1	-1	-1	31	-1	28	-1	1	-1	-1	16	-1	-1	-1	-1	-1	-1	-1	19	-1	-1	-1	-1	7	-1	-1	-1	-1	-1	25	30	-1	-1	-1	-1	-1
19	-1	-1	-1	-1	-1	-1	-1	-1	-1	-1	15	-1	-1	20	-1	-1	32	-1	-1	-1	-1	-1	-1	23	-1	17	-1	-1	-1	-1	-1	-1	-1	-1	-1
-1	-1	-1	-1	-1	-1	-1	-1	27	-1	-1	-1	1	-1	-1	-1	-1	-1	-1	-1	-1	-1	-1	-1	-1	-1	-1	-1	-1	-1	-1	-1	23	28	-1	20
25	-1	-1	-1	-1	12	-1	-1	5	-1	-1	18	-1	3	-1	-1	14	-1	-1	13	-1	28	-1	-1	-1	-1	-1	-1	-1	-1	-1	-1	-1	32	-1	-1
-1	7	-1	-1	33	-1	-1	12	-1	-1	-1	-1	-1	-1	-1	-1	25	-1	-1	-1	-1	-1	-1	-1	-1	-1	-1	36	-1	-1	-1	-1	1	-1	-1	-1
-1	-1	-1	20	-1	-1	-1	-1	-1	-1	-1	-1	-1	-1	-1	13	4	-1	-1	-1	-1	-1	1	29	-1	-1	3	-1	-1	-1	-1	-1	6	-1	-1	-1
-1	-1	-1	-1	31	-1	-1	-1	-1	-1	-1	-1	-1	-1	-1	-1	8	-1	-1	-1	-1	-1	-1	15	-1	-1	24	-1	-1	-1	-1	-1	-1	7	-1	-1
-1	-1	-1	-1	-1	-1	-1	-1	-1	-1	-1	-1	-1	-1	-1	22	-1	-1	-1	-1	-1	26	12	-1	-1	-1	-1	-1	-1	-1	-1	-1	-1	-1	-1	-1
-1	19	-1	-1	-1	-1	-1	4	-1	-1	9	13	-1	31	16	-1	-1	-1	-1	-1	-1	-1	-1	-1	-1	-1	-1	-1	-1	15	-1	-1	-1	-1	-1	-1
-1	-1	-1	-1	34	-1	33	-1	-1	21	-1	-1	-1	-1	-1	20	-1	-1	-1	-1	10	-1	22	-1	13	-1	-1	-1	-1	-1	-1	-1	-1	-1	-1	-1
-1	-1	16	-1	-1	-1	-1	-1	-1	-1	-1	-1	-1	-1	-1	-1	-1	-1	1	7	-1	-1	-1	-1	2	-1	-1	-1	-1	26	-1	-1	-1	22	-1	-1
-1	20	-1	-1	-1	14	-1	8	-1	-1	-1	-1	-1	-1	-1	-1	-1	-1	-1	-1	-1	-1	-1	-1	-1	35	-1	-1	-1	12	-1	-1	-1	-1	-1	-1
-1	-1	-1	-1	-1	-1	-1	-1	-1	-1	-1	-1	-1	-1	-1	-1	5	-1	-1	-1	-1	-1	-1	-1	-1	-1	35	-1	-1	-1	-1	-1	-1	-1	-1	-1
-1	-1	-1	-1	-1	-1	28	-1	-1	-1	-1	-1	-1	-1	-1	-1	-1	17	-1	-1	16	-1	-1	-1	-1	-1	-1	6	-1	-1	-1	-1	-1	-1	-1	-1
-1	-1	-1	-1	30	-1	-1	-1	-1	19	-1	-1	-1	-1	-1	-1	-1	-1	-1	-1	-1	-1	-1	-1	-1	-1	-1	-1	-1	-1	-1	-1	-1	-1	-1	22
-1	-1	-1	2	-1	-1	-1	-1	24	-1	-1	-1	-1	-1	-1	-1	35	-1	-1	-1	-1	-1	-1	-1	-1	-1	-1	-1	-1	-1	-1	-1	-1	-1	-1	-1
32	-1	-1	-1	-1	-1	20	7	-1	-1	-1	-1	-1	-1	-1	9	-1	-1	-1	28	-1	14	-1	-1	-1	-1	-1	-1	-1	34	-1	-1	-1	-1	-1	3
-1	-1	-1	-1	-1	-1	-1	-1	-1	-1	-1	-1	-1	-1	-1	1	-1	-1	-1	-1	-1	-1	-1	-1	-1	-1	36	-1	-1	-1	-1	-1	-1	-1	-1	-1
-1	-1	-1	-1	-1	-1	-1	-1	10	-1	-1	-1	-1	-1	-1	-1	-1	1	-1	24	-1	-1	-1	-1	-1	-1	-1	-1	-1	-1	2	27	-1	36	-1	-1
-1	-1	-1	-1	21	-1	-1	33	-1	-1	-1	-1	-1	-1	34	10	-1	-1	-1	-1	-1	-1	-1	-1	35	-1	-1	-1	4	-1	15	32	-1	-1	-1	-1
-1	-1	-1	-1	-1	-1	-1	-1	-1	-1	-1	-1	-1	-1	-1	-1	-1	-1	-1	-1	-1	-1	20	-1	-1	-1	-1	-1	-1	-1	-1	-1	31	-1	-1	-1
-1	-1	-1	-1	-1	-1	-1	-1	-1	-1	-1	4	-1	-1	-1	-1	36	-1	-1	-1	-1	3	-1	21	-1	-1	-1	-1	-1	-1	35	-1	-1	8	-1	-1
-1	27	-1	-1	-1	-1	-1	-1	-1	-1	-1	-1	25	-1	-1	-1	-1	-1	-1	-1	-1	-1	-1	-1	-1	-1	23	15	-1	-1	-1	7	-1	-1	-1	-1
-1	-1	-1	-1	-1	2	-1	-1	12	-1	-1	-1	-1	-1	-1	-1	-1	-1	17	-1	-1	-1	-1	-1	-1	-1	-1	-1	6	-1	-1	-1	-1	23	-1	16
-1	-1	-1	-1	-1	-1	9	-1	-1	-1	-1	-1	-1	-1	-1	-1	-1	-1	-1	-1	-1	-1	-1	-1	-1	-1	1	-1	-1	20	-1	-1	-1	-1	13	-1
-1	-1	-1	-1	-1	-1	-1	-1	-1	-1	-1	-1	-1	-1	-1	30	-1	-1	-1	-1	-1	-1	-1	1	-1	21	-1	9	-1	-1	11	-1	28	-1	25	23
-1	-1	-1	-1	-1	-1	-1	-1	-1	-1	-1	-1	-1	-1	32	-1	-1	-1	-1	18	-1	-1	-1	23	-1	22	-1	-1	-1	-1	-1	1	12	-1	-1	-1
-1	-1	-1	-1	-1	-1	-1	-1	-1	-1	-1	-1	-1	-1	-1	-1	-1	-1	-1	-1	-1	-1	-1	35	-1	-1	-1	13	-1	-1	-1	-1	-1	-1	-1	-1
1	12	-1	32	-1	-1	-1	-1	-1	-1	-1	-1	-1	-1	-1	-1	-1	-1	-1	-1	-1	-1	-1	-1	-1	-1	-1	-1	-1	-1	-1	-1	-1	34	-1	-1
-1	-1	25	-1	28	-1	-1	-1	-1	-1	-1	-1	-1	-1	-1	-1	-1	-1	-1	32	-1	-1	21	12	-1	31	-1	-1	-1	6	-1	-1	-1	-1	-1	30
-1	30	19	-1	-1	6	-1	-1	-1	-1	-1	-1	-1	-1	-1	-1	34	-1	13	-1	-1	-1	-1	-1	-1	-1	-1	-1	-1	-1	-1	-1	-1	-1	-1	-1
3	-1	-1	-1	-1	-1	-1	-1	4	-1	-1	-1	-1	-1	-1	-1	-1	-1	-1	-1	-1	-1	-1	-1	15	-1	-1	20	-1	22	-1	-1	-1	-1	-1	-1
-1	-1	-1	17	-1	-1	-1	15	-1	-1	-1	-1	36	-1	-1	27	-1	-1	-1	-1	-1	19	-1	-1	-1	-1	-1	30	-1	24	-1	8	-1	-1	-1	-1
-1	-1	-1	-1	-1	-1	-1	35	-1	27	-1	-1	-1	-1	-1	-1	-1	-1	-1	-1	-1	-1	-1	-1	-1	-1	-1	-1	-1	-1	-1	3	5	-1	-1	-1
-1	26	-1	-1	-1	-1	21	-1	-1	28	-1	-1	-1	20	-1	-1	-1	-1	-1	-1	-1	-1	-1	-1	-1	-1	-1	-1	-1	-1	25	-1	-1	14	-1	-1
-1	28	-1	34	-1	-1	-1	-1	-1	-1	-1	7	-1	-1	-1	-1	-1	-1	-1	15	-1	-1	-1	-1	-1	-1	-1	-1	-1	-1	-1	-1	-1	-1	2	-1
